NAME          BLANK   
ROWS
 N  OBJROW
 L  R0000000
COLUMNS
    C0000000  OBJROW     -930.         R0000000  556.        
    C0000001  OBJROW     -937.         R0000000  822.        
    C0000002  OBJROW     -464.         R0000000  188.        
    C0000003  OBJROW     -699.         R0000000  102.        
    C0000004  OBJROW     -168.         R0000000  308.        
    C0000005  OBJROW     -451.         R0000000  998.        
    C0000006  OBJROW     -446.         R0000000  213.        
    C0000007  OBJROW     -964.         R0000000  68.         
    C0000008  OBJROW     -550.         R0000000  959.        
    C0000009  OBJROW     -285.         R0000000  828.        
    C0000010  OBJROW     -854.         R0000000  357.        
    C0000011  OBJROW     -621.         R0000000  462.        
    C0000012  OBJROW     -918.         R0000000  595.        
    C0000013  OBJROW     -909.         R0000000  839.        
    C0000014  OBJROW     -500.         R0000000  940.        
    C0000015  OBJROW     -38.          R0000000  447.        
    C0000016  OBJROW     -277.         R0000000  778.        
    C0000017  OBJROW     -438.         R0000000  392.        
    C0000018  OBJROW     -541.         R0000000  59.         
    C0000019  OBJROW     -974.         R0000000  496.        
    C0000020  OBJROW     -643.         R0000000  35.         
    C0000021  OBJROW     -448.         R0000000  200.        
    C0000022  OBJROW     -737.         R0000000  945.        
    C0000023  OBJROW     -417.         R0000000  993.        
    C0000024  OBJROW     -161.         R0000000  522.        
    C0000025  OBJROW     -138.         R0000000  127.        
    C0000026  OBJROW     -657.         R0000000  500.        
    C0000027  OBJROW     -216.         R0000000  781.        
    C0000028  OBJROW     -115.         R0000000  254.        
    C0000029  OBJROW     -368.         R0000000  835.        
RHS
    RHS       R0000000  7799.       
BOUNDS
 BV BOUND     C0000000  1.          
 BV BOUND     C0000001  1.          
 BV BOUND     C0000002  1.          
 BV BOUND     C0000003  1.          
 BV BOUND     C0000004  1.          
 BV BOUND     C0000005  1.          
 BV BOUND     C0000006  1.          
 BV BOUND     C0000007  1.          
 BV BOUND     C0000008  1.          
 BV BOUND     C0000009  1.          
 BV BOUND     C0000010  1.          
 BV BOUND     C0000011  1.          
 BV BOUND     C0000012  1.          
 BV BOUND     C0000013  1.          
 BV BOUND     C0000014  1.          
 BV BOUND     C0000015  1.          
 BV BOUND     C0000016  1.          
 BV BOUND     C0000017  1.          
 BV BOUND     C0000018  1.          
 BV BOUND     C0000019  1.          
 BV BOUND     C0000020  1.          
 BV BOUND     C0000021  1.          
 BV BOUND     C0000022  1.          
 BV BOUND     C0000023  1.          
 BV BOUND     C0000024  1.          
 BV BOUND     C0000025  1.          
 BV BOUND     C0000026  1.          
 BV BOUND     C0000027  1.          
 BV BOUND     C0000028  1.          
 BV BOUND     C0000029  1.          
ENDATA
